
Gurobi 10.0.3 (linux64, gurobi_cl) logging started Fri Nov 10 19:16:52 2023

Set parameter Username
Set parameter TimeLimit to value 3600
Set parameter LogFile to value "RCPSP_1700.log"
Set parameter Threads to value 32
Academic license - for non-commercial use only - expires 2024-10-30
Using license file /home/jrivera6/gurobi-licenses/v1003/compute-0-37/gurobi.lic

Gurobi Optimizer version 10.0.3 build v10.0.3rc0 (linux64)
Copyright (c) 2023, Gurobi Optimization, LLC

Read MPS format model from file RCPSP_1700.mps
Reading time = 0.08 seconds
RCPSP_1700: 75251 rows, 29890 columns, 251666 nonzeros

CPU model: Intel(R) Xeon(R) Gold 6242 CPU @ 2.80GHz, instruction set [SSE2|AVX|AVX2|AVX512]
Thread count: 32 physical cores, 32 logical processors, using up to 32 threads

Optimize a model with 75251 rows, 29890 columns and 251666 nonzeros
Model fingerprint: 0x8a68349c
Variable types: 122 continuous, 29768 integer (29768 binary)
Coefficient statistics:
  Matrix range     [1e+00, 7e+02]
  Objective range  [1e+00, 1e+00]
  Bounds range     [1e+00, 1e+00]
  RHS range        [1e+00, 7e+02]
Presolve removed 22083 rows and 6277 columns (presolve time = 5s) ...
Presolve removed 26227 rows and 7668 columns
Presolve time: 8.71s
Presolved: 49024 rows, 22222 columns, 168151 nonzeros
Variable types: 121 continuous, 22101 integer (22101 binary)

Deterministic concurrent LP optimizer: primal and dual simplex (primal and dual model)
Showing first log only...

Root relaxation presolved: 49017 rows, 22229 columns, 168137 nonzeros


Root simplex log...

Iteration    Objective       Primal Inf.    Dual Inf.      Time
       0    1.2302270e+02   7.912455e-03   1.302305e+08     63s
    3307    1.2200000e+02   0.000000e+00   0.000000e+00     64s
    3307    1.2200000e+02   0.000000e+00   0.000000e+00     64s
Concurrent spin time: 0.41s

Solved with dual simplex (primal model)

Root relaxation: objective 1.220000e+02, 6841 iterations, 55.24 seconds (0.25 work units)
Total elapsed time = 67.03s

    Nodes    |    Current Node    |     Objective Bounds      |     Work
 Expl Unexpl |  Obj  Depth IntInf | Incumbent    BestBd   Gap | It/Node Time

     0     0  122.00000    0  840          -  122.00000      -     -   97s
     0     0  122.00000    0  817          -  122.00000      -     -  109s
     0     0  124.66667    0 1600          -  124.66667      -     -  154s
     0     0  124.66667    0 1602          -  124.66667      -     -  155s
     0     0  124.66667    0 1594          -  124.66667      -     -  155s
     0     0  124.66667    0 1619          -  124.66667      -     -  157s
     0     0  124.66667    0 1557          -  124.66667      -     -  158s
     0     0  126.00000    0 1795          -  126.00000      -     -  175s
     0     0  126.00000    0 1713          -  126.00000      -     -  177s
     0     0  126.00000    0 1709          -  126.00000      -     -  177s
     0     0  126.00015    0 1751          -  126.00015      -     -  180s
     0     0  126.00015    0 1750          -  126.00015      -     -  181s
     0     0  126.00015    0 1748          -  126.00015      -     -  181s
     0     0  127.00437    0 2027          -  127.00437      -     -  221s
     0     0  127.00437    0 1721          -  127.00437      -     -  224s
     0     0  127.00437    0 1530          -  127.00437      -     -  226s
     0     0  127.00437    0 1528          -  127.00437      -     -  226s
     0     0  127.00437    0 2002          -  127.00437      -     -  234s
     0     0  127.00437    0 1924          -  127.00437      -     -  236s
     0     0  127.00437    0 2031          -  127.00437      -     -  239s
     0     0  127.00437    0 1929          -  127.00437      -     -  240s
H    0     0                     677.0000000  127.00437  81.2%     -  243s
     0     0  127.00437    0 2207  677.00000  127.00437  81.2%     -  244s
     0     0  127.00437    0  346  677.00000  127.00437  81.2%     -  263s
     0     0  127.00437    0  346  677.00000  127.00437  81.2%     -  263s
     0     0  127.00437    0 1091  677.00000  127.00437  81.2%     -  291s
     0     0  127.00437    0 1074  677.00000  127.00437  81.2%     -  291s
H    0     0                     632.0000000  127.00437  79.9%     -  301s
     0     0  127.81019    0 1109  632.00000  127.81019  79.8%     -  303s
     0     0  127.81019    0 1087  632.00000  127.81019  79.8%     -  303s
H    0     0                     580.0000000  127.81019  78.0%     -  342s
     0     0  132.34120    0  465  580.00000  132.34120  77.2%     -  349s
     0     0  132.34120    0  464  580.00000  132.34120  77.2%     -  349s
H    0     0                     529.9999999  132.34120  75.0%     -  352s
     0     0  132.34120    0  830  530.00000  132.34120  75.0%     -  368s
     0     0  133.83231    0 1097  530.00000  133.83231  74.7%     -  373s
     0     0  133.83231    0  970  530.00000  133.83231  74.7%     -  374s
     0     0  133.83231    0 1048  530.00000  133.83231  74.7%     -  376s
     0     0  133.83231    0  998  530.00000  133.83231  74.7%     -  377s
H    0     0                     514.0000000  133.83231  74.0%     -  393s
H    0     0                     501.0000000  133.83231  73.3%     -  395s
     0     0  133.83231    0 1122  501.00000  133.83231  73.3%     -  396s
     0     0  133.83231    0 1087  501.00000  133.83231  73.3%     -  396s
     0     0  133.83454    0 1266  501.00000  133.83454  73.3%     -  401s
H    0     0                     464.0000000  133.83454  71.2%     -  408s
     0     0  133.83484    0 1174  464.00000  133.83484  71.2%     -  411s
     0     0  133.83484    0 1161  464.00000  133.83484  71.2%     -  412s
     0     0  133.83484    0 1161  464.00000  133.83484  71.2%     -  412s
     0     0  133.88748    0 1258  464.00000  133.88748  71.1%     -  420s
     0     0  133.88748    0 1168  464.00000  133.88748  71.1%     -  421s
     0     0  133.92580    0 1265  464.00000  133.92580  71.1%     -  425s
     0     0  133.92580    0 1190  464.00000  133.92580  71.1%     -  427s
     0     0  133.92669    0 1185  464.00000  133.92669  71.1%     -  434s
     0     0  133.92669    0 1274  464.00000  133.92669  71.1%     -  436s
     0     0  133.92669    0 1248  464.00000  133.92669  71.1%     -  436s
     0     0  134.20745    0 1159  464.00000  134.20745  71.1%     -  445s
     0     0  134.20745    0 1185  464.00000  134.20745  71.1%     -  447s
     0     0  134.20745    0 1023  464.00000  134.20745  71.1%     -  448s
H    0     0                     450.0000000  134.20745  70.2%     -  460s
H    0     0                     421.0000000  134.20745  68.1%     -  460s
     0     0  134.20745    0 1381  421.00000  134.20745  68.1%     -  461s
     0     0  134.20745    0 1724  421.00000  134.20745  68.1%     -  463s
     0     0  134.20745    0 1590  421.00000  134.20745  68.1%     -  463s
     0     0  134.27663    0 1535  421.00000  134.27663  68.1%     -  469s
     0     0  134.27663    0 1296  421.00000  134.27663  68.1%     -  471s
     0     0  134.27663    0 1413  421.00000  134.27663  68.1%     -  473s
     0     0  134.27663    0 1335  421.00000  134.27663  68.1%     -  474s
     0     0  134.27663    0 1323  421.00000  134.27663  68.1%     -  494s
     0     0  134.27663    0 1278  421.00000  134.27663  68.1%     -  495s
     0     0  134.27663    0 1157  421.00000  134.27663  68.1%     -  496s
     0     0  134.27663    0 1155  421.00000  134.27663  68.1%     -  496s
     0     0  134.31669    0 1327  421.00000  134.31669  68.1%     -  502s
     0     0  134.31669    0 1241  421.00000  134.31669  68.1%     -  504s
     0     0  134.31669    0 1237  421.00000  134.31669  68.1%     -  504s
     0     0  134.41126    0 1228  421.00000  134.41126  68.1%     -  512s
     0     0  134.41126    0 1254  421.00000  134.41126  68.1%     -  513s
     0     0  134.41126    0 1236  421.00000  134.41126  68.1%     -  513s
     0     0  134.41126    0 1282  421.00000  134.41126  68.1%     -  517s
     0     0  134.41126    0 1281  421.00000  134.41126  68.1%     -  519s
     0     0  134.41126    0 1206  421.00000  134.41126  68.1%     -  519s
H    0     0                     393.0000000  134.41126  65.8%     -  527s
     0     0  134.41126    0 1481  393.00000  134.41126  65.8%     -  527s
     0     0  134.41126    0 1347  393.00000  134.41126  65.8%     -  529s
     0     0  134.41126    0 1388  393.00000  134.41126  65.8%     -  530s
     0     0  134.41126    0 1361  393.00000  134.41126  65.8%     -  530s
     0     0  134.41126    0 1195  393.00000  134.41126  65.8%     -  540s
     0     0  134.41126    0 1242  393.00000  134.41126  65.8%     -  542s
     0     0  134.41126    0 1209  393.00000  134.41126  65.8%     -  542s
     0     0  134.56187    0 1358  393.00000  134.56187  65.8%     -  549s
     0     0  134.56187    0 1275  393.00000  134.56187  65.8%     -  550s
     0     0  134.56187    0 1265  393.00000  134.56187  65.8%     -  550s
     0     0  134.59888    0 1208  393.00000  134.59888  65.8%     -  556s
     0     0  134.59888    0 1325  393.00000  134.59888  65.8%     -  558s
     0     0  134.59888    0 1203  393.00000  134.59888  65.8%     -  559s
     0     0  134.59888    0 1242  393.00000  134.59888  65.8%     -  571s
     0     0  134.59888    0 1142  393.00000  134.59888  65.8%     -  572s
H    0     0                     363.0000000  134.59888  62.9%     -  580s
     0     0  134.67956    0 1219  363.00000  134.67956  62.9%     -  580s
     0     0  134.67956    0 1195  363.00000  134.67956  62.9%     -  581s
H    0     0                     358.0000000  134.67956  62.4%     -  608s
     0     0  134.73257    0 1266  358.00000  134.73257  62.4%     -  616s
     0     0  134.73257    0 1243  358.00000  134.73257  62.4%     -  616s
     0     0  134.73257    0 1244  358.00000  134.73257  62.4%     -  616s
     0     0  134.73466    0 1282  358.00000  134.73466  62.4%     -  623s
     0     0  134.73466    0 1241  358.00000  134.73466  62.4%     -  624s
     0     0  134.73466    0 1186  358.00000  134.73466  62.4%     -  624s
     0     0  134.73466    0 1427  358.00000  134.73466  62.4%     -  628s
     0     0  134.73466    0 1412  358.00000  134.73466  62.4%     -  628s
H    0     0                     352.0000000  134.73466  61.7%     -  646s
     0     0  134.73466    0 1367  352.00000  134.73466  61.7%     -  647s
     0     0  134.73466    0 1358  352.00000  134.73466  61.7%     -  647s
H    0     0                     346.0000000  134.73466  61.1%     -  650s
     0     0  134.73717    0 1383  346.00000  134.73717  61.1%     -  657s
     0     0  134.73717    0 1338  346.00000  134.73717  61.1%     -  657s
     0     0  134.73717    0 1245  346.00000  134.73717  61.1%     -  663s
     0     0  134.73717    0 1276  346.00000  134.73717  61.1%     -  665s
     0     0  134.73717    0 1395  346.00000  134.73717  61.1%     -  667s
     0     0  134.73717    0 1375  346.00000  134.73717  61.1%     -  667s
     0     0  134.80875    0 1330  346.00000  134.80875  61.0%     -  687s
     0     0  134.80875    0 1203  346.00000  134.80875  61.0%     -  688s
     0     0  134.80875    0 1191  346.00000  134.80875  61.0%     -  689s
     0     0  134.80875    0 1343  346.00000  134.80875  61.0%     -  703s
     0     0  134.80875    0 1274  346.00000  134.80875  61.0%     -  703s
H    0     0                     339.0000000  134.80875  60.2%     -  713s
     0     0  134.90637    0 1252  339.00000  134.90637  60.2%     -  714s
     0     0  134.90637    0 1260  339.00000  134.90637  60.2%     -  728s
     0     0  134.90637    0 1256  339.00000  134.90637  60.2%     -  728s
     0     0  134.90637    0 1239  339.00000  134.90637  60.2%     -  738s
     0     0  134.90637    0 1229  339.00000  134.90637  60.2%     -  739s
     0     0  134.90637    0 1355  339.00000  134.90637  60.2%     -  742s
     0     0  134.90637    0 1390  339.00000  134.90637  60.2%     -  743s
     0     0  134.90637    0 1333  339.00000  134.90637  60.2%     -  744s
     0     0  134.90637    0  554  339.00000  134.90637  60.2%     -  760s
     0     0  134.90637    0  551  339.00000  134.90637  60.2%     -  760s
H    0     0                     329.0000000  134.90637  59.0%     -  774s
     0     0  134.90637    0  658  329.00000  134.90637  59.0%     -  775s
     0     0  134.90637    0  651  329.00000  134.90637  59.0%     -  776s
     0     0  134.90637    0  608  329.00000  134.90637  59.0%     -  776s
     0     0  134.90637    0  356  329.00000  134.90637  59.0%     -  788s
H    0     0                     328.0000000  134.90637  58.9%     -  825s
H    0     0                     324.0000000  134.90637  58.4%     -  832s
     0     0  134.90637    0  787  324.00000  134.90637  58.4%     -  832s
     0     0  134.90637    0  785  324.00000  134.90637  58.4%     -  832s
     0     0  134.90637    0  424  324.00000  134.90637  58.4%     -  845s
H    0     0                     323.0000000  134.90637  58.2%     -  870s
     0     0  134.90637    0  695  323.00000  134.90637  58.2%     -  871s
     0     0  134.90637    0  690  323.00000  134.90637  58.2%     -  871s
     0     0  134.90637    0  609  323.00000  134.90637  58.2%     -  880s
     0     0  134.90637    0  606  323.00000  134.90637  58.2%     -  880s
H    0     0                     318.0000000  134.90637  57.6%     -  891s
     0     0  134.90637    0  492  318.00000  134.90637  57.6%     -  894s
     0     2  134.90637    0  198  318.00000  134.90637  57.6%     -  912s
     1     3  135.92075    1  407  318.00000  135.71309  57.3%  7201  923s
     3     6  136.46644    2 1031  318.00000  135.99561  57.2%  2915  937s
     6    12  138.28432    3 1097  318.00000  136.15676  57.2%  2428  951s
    12    22  140.83231    4 1041  318.00000  137.83231  56.7%  2227  987s
    24    32  140.83231    5 1073  318.00000  137.83231  56.7%  2287 1048s
H   46    55                     316.0000000  137.83231  56.4%  1930 1468s
H   47    55                     306.0000000  137.83231  55.0%  1959 1468s
    78    84  148.00000    7 1274  306.00000  137.83231  55.0%  1988 1499s
   110   113  148.00000    8 1231  306.00000  137.83231  55.0%  1878 1538s
   142   141  148.00000    9 1274  306.00000  137.83231  55.0%  1770 1555s
   174   188  148.00000   10 1195  306.00000  137.83231  55.0%  1634 1575s
   228   216  152.00000   12 1188  306.00000  137.83231  55.0%  1298 1753s
H  230   216                     303.0000000  137.83231  54.5%  1294 1753s
H  232   216                     300.0000000  137.83231  54.1%  1283 1753s
   260   241  152.00000   13 1187  300.00000  137.83231  54.1%  1168 2009s
   293   289  152.00000   14 1185  300.00000  137.83231  54.1%  1059 2028s
   350   341  152.00000   16 1213  300.00000  137.83231  54.1%   926 2050s
   416   399  152.00000   19 1165  300.00000  137.83231  54.1%   825 2073s
   487   460  157.00000   21 1075  300.00000  137.83231  54.1%   746 2092s
   577   522  157.00000   24 1049  300.00000  137.83231  54.1%   661 2113s
   653   603  157.00000   28 1074  300.00000  137.83231  54.1%   625 2130s
   751   689  157.00000   30 1045  300.00000  137.83231  54.1%   587 2147s
   857   792  157.00000   32 1029  300.00000  137.83231  54.1%   543 2165s
   991   913  157.00000   33 1017  300.00000  137.83231  54.1%   485 2186s
  1144  1053  159.98019   36 1183  300.00000  137.83231  54.1%   436 2206s
  1304  1150  169.98019   36 1163  300.00000  137.83231  54.1%   401 2234s
H 1308  1150                     298.0000000  137.83231  53.7%   401 2234s
H 1346  1150                     297.0000000  137.83231  53.6%   392 2234s
  1423  1289  169.98019   37 1160  297.00000  137.83231  53.6%   379 2259s
  1580  1450  169.98019   41 1127  297.00000  137.83231  53.6%   359 2287s
  1761  1628  169.98019   44 1071  297.00000  137.83231  53.6%   336 2341s
  1976  1803  181.98019   53 1041  297.00000  137.83231  53.6%   313 2378s
  2183  1976  181.98019   55 1003  297.00000  137.83231  53.6%   298 2434s
  2410  2184  181.98019   57 1002  297.00000  137.83231  53.6%   284 2479s
H 2548  2184                     297.0000000  137.83231  53.6%   277 2495s
H 2565  2184                     295.0000000  137.83231  53.3%   276 2550s
  2653  2414  181.98019   59  968  295.00000  137.83231  53.3%   269 2612s
  2934  2697  181.98019   63 1021  295.00000  137.83231  53.3%   257 2700s
  3261  2991  181.98019   64 1020  295.00000  137.83231  53.3%   241 2770s
  3601  3238  181.98019   66 1088  295.00000  137.83231  53.3%   227 3043s
H 3606  3238                     294.0000000  137.83231  53.1%   228 3067s
H 3613  3238                     293.0000000  137.83231  53.0%   229 3070s

Gurobi 10.0.3 (linux64, gurobi_cl) logging started Wed Nov 15 04:35:45 2023

Set parameter Username
Set parameter TimeLimit to value 3600
Set parameter LogFile to value "RCPSP_1700.log"
Set parameter Threads to value 32
Academic license - for non-commercial use only - expires 2024-11-06
Using license file /home/jrivera6/gurobi-licenses/v1003/compute-0-36/gurobi.lic

Gurobi Optimizer version 10.0.3 build v10.0.3rc0 (linux64)
Copyright (c) 2023, Gurobi Optimization, LLC

Read MPS format model from file RCPSP_1700.mps
Reading time = 0.14 seconds
RCPSP_1700: 75251 rows, 29890 columns, 251666 nonzeros

CPU model: Intel(R) Xeon(R) Gold 6130 CPU @ 2.10GHz, instruction set [SSE2|AVX|AVX2|AVX512]
Thread count: 32 physical cores, 32 logical processors, using up to 32 threads

Optimize a model with 75251 rows, 29890 columns and 251666 nonzeros
Model fingerprint: 0x8a68349c
Variable types: 122 continuous, 29768 integer (29768 binary)
Coefficient statistics:
  Matrix range     [1e+00, 7e+02]
  Objective range  [1e+00, 1e+00]
  Bounds range     [1e+00, 1e+00]
  RHS range        [1e+00, 7e+02]
Presolve removed 22083 rows and 6277 columns (presolve time = 5s) ...
Presolve removed 22083 rows and 6277 columns (presolve time = 10s) ...
Presolve removed 26227 rows and 7668 columns
Presolve time: 10.94s
Presolved: 49024 rows, 22222 columns, 168151 nonzeros
Variable types: 121 continuous, 22101 integer (22101 binary)

Deterministic concurrent LP optimizer: primal and dual simplex (primal and dual model)
Showing first log only...

Root relaxation presolved: 49017 rows, 22229 columns, 168137 nonzeros


Root simplex log...

Iteration    Objective       Primal Inf.    Dual Inf.      Time
       0    1.2302270e+02   7.912455e-03   1.302305e+08     13s
    3307    1.2200000e+02   0.000000e+00   0.000000e+00     13s
    3307    1.2200000e+02   0.000000e+00   0.000000e+00     14s
Concurrent spin time: 1.22s

Solved with dual simplex (primal model)

Root relaxation: objective 1.220000e+02, 6841 iterations, 3.39 seconds (0.25 work units)
Total elapsed time = 20.75s

    Nodes    |    Current Node    |     Objective Bounds      |     Work
 Expl Unexpl |  Obj  Depth IntInf | Incumbent    BestBd   Gap | It/Node Time

     0     0  122.00000    0  840          -  122.00000      -     -   31s
     0     0  122.00000    0  817          -  122.00000      -     -   32s
     0     0  124.66667    0 1600          -  124.66667      -     -  106s
     0     0  124.66667    0 1602          -  124.66667      -     -  108s
     0     0  124.66667    0 1594          -  124.66667      -     -  108s
     0     0  124.66667    0 1619          -  124.66667      -     -  111s
     0     0  124.66667    0 1557          -  124.66667      -     -  111s
     0     0  126.00000    0 1795          -  126.00000      -     -  129s
     0     0  126.00000    0 1713          -  126.00000      -     -  132s
     0     0  126.00000    0 1709          -  126.00000      -     -  132s
     0     0  126.00015    0 1751          -  126.00015      -     -  137s
     0     0  126.00015    0 1750          -  126.00015      -     -  137s
     0     0  126.00015    0 1748          -  126.00015      -     -  138s
     0     0  127.00437    0 2027          -  127.00437      -     -  150s
     0     0  127.00437    0 1721          -  127.00437      -     -  156s
     0     0  127.00437    0 1530          -  127.00437      -     -  158s
     0     0  127.00437    0 1528          -  127.00437      -     -  158s
     0     0  127.00437    0 2002          -  127.00437      -     -  170s
     0     0  127.00437    0 1924          -  127.00437      -     -  173s
     0     0  127.00437    0 2031          -  127.00437      -     -  178s
     0     0  127.00437    0 1929          -  127.00437      -     -  181s
H    0     0                     677.0000000  127.00437  81.2%     -  181s
     0     0  127.00437    0 2207  677.00000  127.00437  81.2%     -  183s
     0     0  127.00437    0  346  677.00000  127.00437  81.2%     -  238s
     0     0  127.00437    0  346  677.00000  127.00437  81.2%     -  238s
     0     0  127.00437    0 1091  677.00000  127.00437  81.2%     -  300s
     0     0  127.00437    0 1074  677.00000  127.00437  81.2%     -  300s
H    0     0                     632.0000000  127.00437  79.9%     -  310s
     0     0  127.81019    0 1109  632.00000  127.81019  79.8%     -  312s
     0     0  127.81019    0 1087  632.00000  127.81019  79.8%     -  313s
H    0     0                     580.0000000  127.81019  78.0%     -  336s
     0     0  132.34120    0  465  580.00000  132.34120  77.2%     -  360s
     0     0  132.34120    0  464  580.00000  132.34120  77.2%     -  361s
H    0     0                     529.9999999  132.34120  75.0%     -  368s
     0     0  132.34120    0  830  530.00000  132.34120  75.0%     -  379s
     0     0  133.83231    0 1097  530.00000  133.83231  74.7%     -  390s
     0     0  133.83231    0  970  530.00000  133.83231  74.7%     -  392s
     0     0  133.83231    0 1048  530.00000  133.83231  74.7%     -  395s
     0     0  133.83231    0  998  530.00000  133.83231  74.7%     -  396s
H    0     0                     514.0000000  133.83231  74.0%     -  421s
H    0     0                     501.0000000  133.83231  73.3%     -  426s
     0     0  133.83231    0 1122  501.00000  133.83231  73.3%     -  427s
     0     0  133.83231    0 1087  501.00000  133.83231  73.3%     -  429s
     0     0  133.83454    0 1266  501.00000  133.83454  73.3%     -  436s
H    0     0                     464.0000000  133.83454  71.2%     -  447s
     0     0  133.83484    0 1174  464.00000  133.83484  71.2%     -  456s
     0     0  133.83484    0 1161  464.00000  133.83484  71.2%     -  458s
     0     0  133.83484    0 1161  464.00000  133.83484  71.2%     -  458s
     0     0  133.88748    0 1258  464.00000  133.88748  71.1%     -  473s
     0     0  133.88748    0 1168  464.00000  133.88748  71.1%     -  475s
     0     0  133.92580    0 1265  464.00000  133.92580  71.1%     -  485s
     0     0  133.92580    0 1190  464.00000  133.92580  71.1%     -  487s
     0     0  133.92669    0 1185  464.00000  133.92669  71.1%     -  501s
     0     0  133.92669    0 1274  464.00000  133.92669  71.1%     -  505s
     0     0  133.92669    0 1248  464.00000  133.92669  71.1%     -  505s
     0     0  134.20745    0 1159  464.00000  134.20745  71.1%     -  518s
     0     0  134.20745    0 1185  464.00000  134.20745  71.1%     -  521s
     0     0  134.20745    0 1023  464.00000  134.20745  71.1%     -  522s
H    0     0                     450.0000000  134.20745  70.2%     -  537s
H    0     0                     421.0000000  134.20745  68.1%     -  537s
     0     0  134.20745    0 1381  421.00000  134.20745  68.1%     -  539s
     0     0  134.20745    0 1724  421.00000  134.20745  68.1%     -  541s
     0     0  134.20745    0 1590  421.00000  134.20745  68.1%     -  541s
     0     0  134.27663    0 1535  421.00000  134.27663  68.1%     -  552s
     0     0  134.27663    0 1296  421.00000  134.27663  68.1%     -  554s
     0     0  134.27663    0 1413  421.00000  134.27663  68.1%     -  557s
     0     0  134.27663    0 1335  421.00000  134.27663  68.1%     -  559s
     0     0  134.27663    0 1323  421.00000  134.27663  68.1%     -  590s
     0     0  134.27663    0 1278  421.00000  134.27663  68.1%     -  592s
     0     0  134.27663    0 1157  421.00000  134.27663  68.1%     -  593s
     0     0  134.27663    0 1155  421.00000  134.27663  68.1%     -  593s
     0     0  134.31669    0 1327  421.00000  134.31669  68.1%     -  602s
     0     0  134.31669    0 1241  421.00000  134.31669  68.1%     -  604s
     0     0  134.31669    0 1237  421.00000  134.31669  68.1%     -  604s
     0     0  134.41126    0 1228  421.00000  134.41126  68.1%     -  617s
     0     0  134.41126    0 1254  421.00000  134.41126  68.1%     -  618s
     0     0  134.41126    0 1236  421.00000  134.41126  68.1%     -  619s
     0     0  134.41126    0 1282  421.00000  134.41126  68.1%     -  627s
     0     0  134.41126    0 1281  421.00000  134.41126  68.1%     -  629s
     0     0  134.41126    0 1206  421.00000  134.41126  68.1%     -  629s
H    0     0                     393.0000000  134.41126  65.8%     -  641s
     0     0  134.41126    0 1481  393.00000  134.41126  65.8%     -  642s
     0     0  134.41126    0 1347  393.00000  134.41126  65.8%     -  643s
     0     0  134.41126    0 1388  393.00000  134.41126  65.8%     -  645s
     0     0  134.41126    0 1361  393.00000  134.41126  65.8%     -  645s
     0     0  134.41126    0 1195  393.00000  134.41126  65.8%     -  659s
     0     0  134.41126    0 1242  393.00000  134.41126  65.8%     -  662s
     0     0  134.41126    0 1209  393.00000  134.41126  65.8%     -  662s
     0     0  134.56187    0 1358  393.00000  134.56187  65.8%     -  673s
     0     0  134.56187    0 1275  393.00000  134.56187  65.8%     -  674s
     0     0  134.56187    0 1265  393.00000  134.56187  65.8%     -  674s
     0     0  134.59888    0 1208  393.00000  134.59888  65.8%     -  683s
     0     0  134.59888    0 1325  393.00000  134.59888  65.8%     -  685s
     0     0  134.59888    0 1203  393.00000  134.59888  65.8%     -  686s
     0     0  134.59888    0 1242  393.00000  134.59888  65.8%     -  712s
     0     0  134.59888    0 1142  393.00000  134.59888  65.8%     -  712s
H    0     0                     363.0000000  134.59888  62.9%     -  725s
     0     0  134.67956    0 1219  363.00000  134.67956  62.9%     -  725s
     0     0  134.67956    0 1195  363.00000  134.67956  62.9%     -  726s
H    0     0                     358.0000000  134.67956  62.4%     -  767s
     0     0  134.73257    0 1266  358.00000  134.73257  62.4%     -  771s
     0     0  134.73257    0 1243  358.00000  134.73257  62.4%     -  772s
     0     0  134.73257    0 1244  358.00000  134.73257  62.4%     -  772s
     0     0  134.73466    0 1282  358.00000  134.73466  62.4%     -  774s
     0     0  134.73466    0 1241  358.00000  134.73466  62.4%     -  776s
     0     0  134.73466    0 1186  358.00000  134.73466  62.4%     -  776s
     0     0  134.73466    0 1427  358.00000  134.73466  62.4%     -  783s
     0     0  134.73466    0 1412  358.00000  134.73466  62.4%     -  783s
H    0     0                     352.0000000  134.73466  61.7%     -  809s
     0     0  134.73466    0 1367  352.00000  134.73466  61.7%     -  809s
     0     0  134.73466    0 1358  352.00000  134.73466  61.7%     -  809s
H    0     0                     346.0000000  134.73466  61.1%     -  814s
     0     0  134.73717    0 1383  346.00000  134.73717  61.1%     -  823s
     0     0  134.73717    0 1338  346.00000  134.73717  61.1%     -  824s
     0     0  134.73717    0 1245  346.00000  134.73717  61.1%     -  832s
     0     0  134.73717    0 1276  346.00000  134.73717  61.1%     -  834s
     0     0  134.73717    0 1395  346.00000  134.73717  61.1%     -  836s
     0     0  134.73717    0 1375  346.00000  134.73717  61.1%     -  837s
     0     0  134.80875    0 1330  346.00000  134.80875  61.0%     -  896s
     0     0  134.80875    0 1203  346.00000  134.80875  61.0%     -  898s
     0     0  134.80875    0 1191  346.00000  134.80875  61.0%     -  899s
     0     0  134.80875    0 1343  346.00000  134.80875  61.0%     -  917s
     0     0  134.80875    0 1274  346.00000  134.80875  61.0%     -  918s
H    0     0                     339.0000000  134.80875  60.2%     -  943s
     0     0  134.90637    0 1252  339.00000  134.90637  60.2%     -  943s
     0     0  134.90637    0 1260  339.00000  134.90637  60.2%     -  958s
     0     0  134.90637    0 1256  339.00000  134.90637  60.2%     -  958s
     0     0  134.90637    0 1239  339.00000  134.90637  60.2%     -  973s
     0     0  134.90637    0 1229  339.00000  134.90637  60.2%     -  973s
     0     0  134.90637    0 1355  339.00000  134.90637  60.2%     -  977s
     0     0  134.90637    0 1390  339.00000  134.90637  60.2%     -  979s
     0     0  134.90637    0 1333  339.00000  134.90637  60.2%     -  979s
     0     0  134.90637    0  554  339.00000  134.90637  60.2%     - 1029s
     0     0  134.90637    0  551  339.00000  134.90637  60.2%     - 1029s
H    0     0                     329.0000000  134.90637  59.0%     - 1041s
     0     0  134.90637    0  658  329.00000  134.90637  59.0%     - 1042s
     0     0  134.90637    0  651  329.00000  134.90637  59.0%     - 1043s
     0     0  134.90637    0  608  329.00000  134.90637  59.0%     - 1043s
     0     0  134.90637    0  356  329.00000  134.90637  59.0%     - 1057s
H    0     0                     328.0000000  134.90637  58.9%     - 1097s
H    0     0                     324.0000000  134.90637  58.4%     - 1098s
     0     0  134.90637    0  787  324.00000  134.90637  58.4%     - 1098s
     0     0  134.90637    0  785  324.00000  134.90637  58.4%     - 1098s
     0     0  134.90637    0  424  324.00000  134.90637  58.4%     - 1108s
H    0     0                     323.0000000  134.90637  58.2%     - 1137s
     0     0  134.90637    0  695  323.00000  134.90637  58.2%     - 1138s
     0     0  134.90637    0  690  323.00000  134.90637  58.2%     - 1138s
     0     0  134.90637    0  609  323.00000  134.90637  58.2%     - 1155s
     0     0  134.90637    0  606  323.00000  134.90637  58.2%     - 1155s
H    0     0                     318.0000000  134.90637  57.6%     - 1166s
     0     0  134.90637    0  492  318.00000  134.90637  57.6%     - 1723s
     0     2  134.90637    0  198  318.00000  134.90637  57.6%     - 2003s
     1     3  135.92075    1  407  318.00000  135.71309  57.3%  7201 2331s
     3     6  136.46644    2 1031  318.00000  135.99561  57.2%  2915 2740s
     5     6  136.42054    2  785  318.00000  136.15676  57.2%  2536 2748s
     6    11  138.28432    3 1097  318.00000  136.15676  57.2%  2428 3961s

Cutting planes:
  Learned: 4
  Gomory: 10
  Cover: 100
  Implied bound: 207
  Clique: 11
  MIR: 721
  StrongCG: 21
  Inf proof: 1
  Zero half: 3
  RLT: 533
  Relax-and-lift: 189
  BQP: 1

Explored 11 nodes (284093 simplex iterations) in 4023.33 seconds (211.61 work units)
Thread count was 32 (of 32 available processors)

Solution count 10: 318 323 324 ... 363

Time limit reached
Best objective 3.180000000000e+02, best bound 1.378323093944e+02, gap 56.6565%

Wrote result file 'RCPSP_1700.sol'

